9223372036854775807 9223372036854775807 9223372036854775807 9223372036854775807 9223372036854775807 9223372036854775807 9223372036854775807 9223372036854775807 9223372036854775807 9223372036854775807 9223372036854775807 9223372036854775807 9223372036854775807 9223372036854775807 9223372036854775807 9223372036854775807 9223372036854775807 9223372036854775807 9223372036854775807 9223372036854775807 9223372036854775807 9223372036854775807 9223372036854775807 9223372036854775807 9223372036854775807 9223372036854775807 9223372036854775807 9223372036854775807 9223372036854775807 9223372036854775807 9223372036854775807 9223372036854775807 9223372036854775807 9223372036854775807 9223372036854775807 9223372036854775807 9223372036854775807 9223372036854775807 9223372036854775807 9223372036854775807 9223372036854775807 9223372036854775807 9223372036854775807 9223372036854775807 9223372036854775807 9223372036854775807 9223372036854775807 9223372036854775807 9223372036854775807 9223372036854775807 9223372036854775807 9223372036854775807 9223372036854775807 9223372036854775807 9223372036854775807 9223372036854775807 9223372036854775807 9223372036854775807 9223372036854775807 9223372036854775807 9223372036854775807 9223372036854775807 9223372036854775807 9223372036854775807 9223372036854775807 9223372036854775807 9223372036854775807 9223372036854775807 9223372036854775807 9223372036854775807 9223372036854775807 1657 1657 1647 1630 1611 1602 1593 1584 1574 1563 1557 1555 1544 1535 1534 1522 1519 1512 1512 1509 1507 1501 1499 1499 1492 1488 1488 1488 1482 1482 1480 1476 1475 1471 1471 1470 1455 1450 1450 1443 1438 1438 1435 1424 1424 1410 1410 1410 1410 1410 1410 1410 1410 1410 1410 1410 1410 1410 1410 1410 1410 1410 1410 1410 1410 1410 1410 1410 1410 1410 1410 1410 1410 1410 1410 1410 1410 1410 1410 1410 1410 1410 1410 1410 1410 1410 1410 1410 1410 1410 1410 1410 1409 1409 1409 1409 1409 1409 1409 1409 1409 1409 1409 1409 1409 1409 1409 1409 1409 1409 1409 1409 1409 1409 1409 1409 1409 1409 1409 1409 1409 1409 1409 1409 1409 1409 1409 1409 1409 1409 1409 1409 1409 1409 1409 1409 1409 1409 1409 1409 1409 1409 1409 1409 1409 1409 1409 1409 1409 1409 1409 1409 1409 1409 1409 1409 1409 1409 1409 1409 1409 1409 1409 1409 1409 1409 1409 1409 1409 1409 1409 1409 1409 1409 1409 1409 1409 1409 1409 1409 1409 1409 1409 1409 1409 1409 1409 1409 1409 1409 1409 1409 1409 1409 1409 1409 1409 1409 1409 1409 1409 1409 1409 1409 1409 1409 1409 1409 1409 1409 1409 1409 1409 1409 1409 1409 1409 1409 1409 1409 1409 1409 1409 1409 1409 1409 1409 1409 1409 1409 1409 1409 1409 1409 1409 1409 1409 1409 1409 1409 1409 1409 1409 1409 1409 1409 1409 1409 1409 1409 1409 1409 1409 1409 1409 1409 1409 1409 1409 1409 1409 1409 1409 1409 1409 1409 1409 1409 1409 1409 1409 1409 1409 1409 1409 1409 1409 1409 1409 1409 1409 1409 1409 1409 1409 1409 1409 1409 1409 1409 1409 1409 1409 1409 1409 1409 1409 1409 1409 1409 1409 1409 1409 1409 1409 1409 1409 1409 1409 1409 1409 1409 1409 1409 1409 1409 1409 1409 1409 1409 1409 1409 1409 1409 1409 1409 1409 1409 1409 1409 1409 1409 1409 1409 1409 1409 1409 1409 1409 1409 1409 1409 1409 1409 1409 1409 1409 1409 1409 1409 1409 1409 1409 1409 1409 1409 1409 1409 1409 1409 1409 1409 1409 1409 1409 1409 1409 1409 1409 1409 1409 1409 1409 1409 1409 1409 1409 1409 1409 1409 1409 1409 1409 1409 1409 1409 1409 1409 1409 1409 1409 1409 1409 1409 1409 1409 1409 1409 1409 1409 1409 1409 1409 1409 1409 1409 1409 1409 1409 1409 1409 1409 1409 1409 1409 1409 1409 1409 1409 1409 1409 1409 1409 1409 1409 1409 1409 1409 1409 1409 1409 1409 1409 1409 1409 1409 1409 1409 1409 1409 1409 1409 1409 1409 1409 1409 1409 1409 1409 1409 1409 1409 1409 1409 1409 1409 1409 1409 1409 1409 1409 1409 1409 1409 1409 1409 1409 1409 1409 1409 1409 1409 1409 1409 1409 1409 1409 1409 1409 1409 1409 1409 1409 1409 1409 1409 1409 1409 1409 1409 1409 1409 1409 1409 1409 1409 1409 1409 1409 1409 1409 1409 1409 1409 1409 1409 1409 1409 1409 1409 1409 1409 1409 1409 1409 1409 1409 1409 1409 1409 1409 1409 1409 1409 1409 1409 1409 1409 1409 1409 1409 1409 1409 1409 1409 1409 1409 1409 1409 1409 1409 1409 1409 1409 1409 1409 1409 1409 1409 1409 1409 1409 1409 1409 1409 1409 1409 1409 1409 1409 1409 1409 1409 1409 1409 1409 1409 1409 1409 1409 1409 1409 1409 1409 1409 1409 1409 1409 1409 1409 1409 1409 1409 1409 1409 1409 1409 1409 1409 1409 1409 1409 1409 1409 1409 1409 1409 1409 1409 1409 1409 1409 1409 1409 1409 1409 1409 1409 1409 1409 1409 1409 1409 1409 1409 1409 1409 1409 1409 1409 1409 1409 1409 1409 1409 1409 1409 1409 1409 1409 1409 1409 1409 1409 1409 1409 1409 1409 1409 1409 1409 1409 1409 1409 1409 1409 1409 1409 1409 1409 1409 1409 1409 1409 1409 1409 1409 1409 1409 1409 1409 1409 1409 1409 1409 1409 1409 1409 1409 1409 1409 1409 1409 1409 1409 1409 1409 1409 1409 1409 1409 1409 1409 1409 1409 1409 1409 1409 1409 1409 1409 1409 1409 1409 1409 1409 1409 1409 1409 1409 1409 1409 1409 1409 1409 1409 1409 1409 1409 1409 1409 1409 1409 1409 1409 1409 1409 1409 1409 1409 1409 1409 1409 1409 1409 1409 1409 1409 1409 1409 1409 1409 1409 1409 1409 1409 1409 1409 1409 1409 1409 1409 1409 1409 1409 1409 1409 1409 1409 1409 1409 1409 1409 1409 1409 1409 1409 1409 1409 1409 1409 1409 1409 1409 1409 1409 1409 1409 1409 1409 1409 1409 1409 1409 1409 1409 1409 1409 1409 1409 1409 1409 1409 1409 1409 1409 1409 1409 1409 1409 1409 1409 1409 1409 1409 1409 1409 1409 1409 1409 1409 1409 1409 1409 1409 1409 1409 1409 1409 1409 1409 1409 1409 1409 1409 1409 1409 1409 1409 1409 1409 1409 1409 1409 1409 1409 1409 1409 1409 1409 1409 1409 1409 1409 1409 1409 1409 1409 1409 1409 1409 1409 1409 1409 1409 1409 1409 1409 1409 1409 1409 1409 1409 1409 1409 1409 1409 1409 1409 1409 1409 1409 1409 1409 1409 1409 1409 1409 1409 1409 1409 1409 1409 1409 1409 1409 1409 1409 1409 1409 1409 1409 1409 1409 1409 1409 1409 1409 1409 1409 1409 1409 1409 1409 1409 1409 1409 1409 1409 1409 1409 1409 1409 1409 1409 1409 1409 1409 1409 1409 1409 1409 1409 1409 1409 1409 1409 1409 1409 1409 1409 1409 1409 1409 1409 1409 1409 1409 1409 1409 1409 1409 1409 1409 1409 1409 1409 1409 1409 1409 1409 1409 1409 1409 1409 1409 1409 1409 1409 1409 1409 1409 1409 1409 1409 1409 1409 1409 1409 1409 1409 1409 1409 1409 1409 1409 1409 1409 1409 1409 1409 1409 1409 1409 1409 1409 1409 1409 1409 1409 1409 1409 1409 1409 1409 1409 1409 1409 1409 1409 1409 1409 1409 1409 1409 1409 1409 1409 1409 1409 1409 1409 1409 1409 1409 1409 1409 1409 1409 1409 1409 1409 1409 1409 1409 1409 1409 1409 1409 1409 1409 1409 1409 1409 1409 1409 1409 1409 1409 1409 1409 1409 1409 1409 1409 1409 1409 1409 1409 1409 1409 1409 1409 1409 1409 1409 1409 1409 1409 1409 1409 1409 1409 1409 1409 1409 1409 1409 1409 1409 1409 1409 1409 1409 1409 1409 1409 1409 1409 1409 1409 1409 1409 1409 1409 1409 1409 1409 1409 1409 1409 1409 1409 1409 1409 1409 1409 1409 1409 1409 1409 1409 1409 1409 1409 1409 1409 1409 1409 1409 1409 1409 1409 1409 1409 1409 1409 1409 1409 1409 1409 1409 1409 1409 1409 1409 1409 1409 1409 1409 1409 1409 1409 1409 1409 1409 1409 1409 1409 1409 1409 1409 1409 1409 1409 1409 1409 1409 1409 1409 1409 1409 1409 1409 1409 1409 1409 1409 1409 1409 1409 1409 1409 1409 1409 1409 1409 1409 1409 1409 1409 1409 1409 1409 1409 1409 1409 1409 1409 1409 1409 1409 1409 1409 1409 1409 1409 1409 1409 1409 1409 1409 1409 1409 1409 1409 1409 1409 1409 1409 1409 1409 1409 1409 1409 1409 1409 1409 1409 1409 1409 1409 1409 1409 1409 1409 1409 1409 1409 1409 1409 1409 1409 1409 1409 1409 1409 1409 1409 1409 1409 1409 1409 1409 1409 1409 1409 1409 1409 1409 1409 1409 1409 1409 1409 1409 1409 1409 1409 1409 1409 1409 1409 1409 1409 1409 1409 1409 1409 1409 1409 1409 1409 1409 1409 1409 1409 1409 1409 1409 1409 1409 1409 1409 1409 1409 1409 1409 1409 1409 1409 1409 1409 1409 1409 1409 1409 1409 1409 1409 1409 1409 1409 1409 1409 1409 1409 1409 1409 1409 1409 1409 1409 1409 1409 1409 1409 1409 1409 1409 1409 1409 1409 1409 1409 1409 1409 1409 1409 1409 1409 1409 1409 1409 1409 1409 1409 1409 1409 1409 1409 1409 1409 1409 1409 1409 1409 1409 1409 1409 1409 1409 1409 1409 1409 1409 1409 1409 1409 1409 1409 1409 1409 1409 1409 1409 1409 1409 1409 1409 1409 1409 1409 1409 1409 1409 1409 1409 1409 1409 1409 1409 1409 1409 1409 1409 1409 1409 1409 1409 1409 1409 1409 1409 1409 1409 1409 1409 1409 1409 1409 1409 1409 1409 1409 1409 1409 1409 1409 1409 1409 1409 1409 1409 1409 1409 1409 1409 1409 1409 1409 1409 1409 1409 1409 1409 1409 1409 1409 1409 1409 1409 1409 1409 1409 1409 1409 1409 1409 1409 1409 1409 1409 1409 1409 1409 1409 1409 1409 1409 1409 1409 1409 1409 1409 1409 1409 1409 1409 1409 1409 1409 1409 1409 1409 1409 1409 1409 1409 1409 1409 1409 1409 1409 1409 1409 1409 1409 1409 1409 1409 1409 1409 1409 1409 1409 1409 1409 1409 1409 1409 1409 1409 1409 1409 1409 1409 1409 1409 1409 1409 1409 1409 1409 1409 1409 1409 1409 1409 1409 1409 1409 1409 1409 1409 1409 1409 1409 1409 1409 1409 1409 1409 1409 1409 1409 1409 1409 1409 1409 1409 1409 1409 1409 1409 1409 1409 1409 1409 1409 1409 1409 1409 1409 1409 1409 1409 1409 1409 1409 1409 1409 1409 1409 1409 1409 1409 1409 1409 1409 1409 1409 1409 1409 1409 1409 1409 1409 1409 1409 1409 1409 1409 1409 1409 1409 1409 1409 1409 1409 1409 1409 1409 1409 1409 1409 1409 1409 1409 1409 1409 1409 1409 1409 1409 1409 1409 1409 1409 1409 1409 1409 1409 1409 1409 1409 1409 1409 1409 1409 1409 1409 1409 1409 1409 1409 1409 1409 1409 1409 1409 1409 1409 1409 1409 1409 1409 1409 1409 1409 1409 1409 1409 1409 1409 1409 1409 1409 1409 1409 1409 1409 1409 1409 1409 1409 1409 1409 1409 1409 1409 1409 1409 1409 1409 1409 1409 1409 1409 1409 1409 1409 1409 1409 1409 1409 1409 1409 1409 1409 1409 1409 1409 1409 1409 1409 1409 1409 1409 1409 1409 1409 1409 1409 1409 1409 1409 1409 1409 1409 1409 1409 1409 1409 1409 1409 1409 1409 1409 1409 1409 1409 1409 1409 1409 1409 1409 1409 1409 1409 1409 1409 1409 1409 1409 1409 1409 1409 1409 1409 1409 1409 1409 1409 1409 1409 1409 1409 1409 1409 1409 1409 1409 1409 1409 1409 1409 1409 1409 1409 1409 1409 1409 1409 1409 1409 1409 1409 1409 1409 1409 1409 1409 1409 1409 1409 1409 1409 1409 1409 1409 1409 1409 1409 1409 1409 1409 1409 1409 1409 1409 1409 1409 1409 1409 1409 1409 1409 1409 1409 1409 1409 1409 1409 1409 1409 1409 1409 1409 1409 1409 1409 1409 1409 1409 1409 1409 1409 1409 1409 1409 1409 1409 1409 1409 1409 1409 1409 1409 1409 1409 1409 1409 1409 1409 1409 1409 1409 1409 1409 1409 1409 1409 1409 1409 1409 1409 1409 1409 1409 1409 1409 1409 1409 1409 1409 1409 1409 1409 1409 1409 1409 1409 1409 1409 1409 1409 1409 1409 1409 1409 1409 1409 1409 1409 1409 1409 1409 1409 1409 1409 1409 1409 1409 1409 1409 1409 1409 1409 1409 1409 1409 1409 1409 1409 1409 1409 1409 1409 1409 1409 1409 1409 1409 1409 1409 1409 1409 1409 1409 1409 1409 1409 1409 1409 1409 1409 1409 1409 1409 1409 1409 1409 1409 1409 1409 1409 1409 1409 1409 1409 1409 1409 1409 1409 1409 1409 1409 1409 1409 1409 1409 1409 1409 1409 1409 1409 1409 1409 1409 1409 1409 1409 1409 1409 1409 1409 1409 1409 1409 1409 1409 1409 1409 1409 1409 1409 1409 1409 
0 0 0 0 0 0 0 0 0 0 0 0 0 0 0 0 0 0 0 0 0 0 0 0 0 0 0 0 0 0 0 0 0 0 0 0 0 0 0 0 0 0 0 0 0 0 0 0 0 0 0 0 0 0 0 0 0 0 0 0 0 0 0 0 0 0 0 0 0 0 0 1659 1659 1659 1649 1636 1622 1611 1605 1592 1586 1572 1568 1562 1555 1549 1543 1534 1527 1521 1518 1512 1511 1508 1506 1502 1498 1497 1494 1487 1487 1487 1483 1481 1475 1475 1475 1470 1469 1464 1452 1449 1443 1441 1437 1437 1432 1423 1410 1410 1410 1410 1410 1410 1410 1410 1410 1410 1410 1410 1410 1410 1410 1410 1410 1410 1410 1410 1410 1410 1410 1410 1410 1410 1410 1410 1410 1410 1410 1410 1410 1410 1410 1410 1410 1410 1410 1410 1410 1410 1410 1410 1410 1409 1409 1409 1409 1409 1409 1409 1409 1409 1409 1409 1409 1409 1409 1409 1409 1409 1409 1409 1409 1409 1409 1409 1409 1409 1409 1409 1409 1409 1409 1409 1409 1409 1409 1409 1409 1409 1409 1409 1409 1409 1409 1409 1409 1409 1409 1409 1409 1409 1409 1409 1409 1409 1409 1409 1409 1409 1409 1409 1409 1409 1409 1409 1409 1409 1409 1409 1409 1409 1409 1409 1409 1409 1409 1409 1409 1409 1409 1409 1409 1409 1409 1409 1409 1409 1409 1409 1409 1409 1409 1409 1409 1409 1409 1409 1409 1409 1409 1409 1409 1409 1409 1409 1409 1409 1409 1409 1409 1409 1409 1409 1409 1409 1409 1409 1409 1409 1409 1409 1409 1409 1409 1409 1409 1409 1409 1409 1409 1409 1409 1409 1409 1409 1409 1409 1409 1409 1409 1409 1409 1409 1409 1409 1409 1409 1409 1409 1409 1409 1409 1409 1409 1409 1409 1409 1409 1409 1409 1409 1409 1409 1409 1409 1409 1409 1409 1409 1409 1409 1409 1409 1409 1409 1409 1409 1409 1409 1409 1409 1409 1409 1409 1409 1409 1409 1409 1409 1409 1409 1409 1409 1409 1409 1409 1409 1409 1409 1409 1409 1409 1409 1409 1409 1409 1409 1409 1409 1409 1409 1409 1409 1409 1409 1409 1409 1409 1409 1409 1409 1409 1409 1409 1409 1409 1409 1409 1409 1409 1409 1409 1409 1409 1409 1409 1409 1409 1409 1409 1409 1409 1409 1409 1409 1409 1409 1409 1409 1409 1409 1409 1409 1409 1409 1409 1409 1409 1409 1409 1409 1409 1409 1409 1409 1409 1409 1409 1409 1409 1409 1409 1409 1409 1409 1409 1409 1409 1409 1409 1409 1409 1409 1409 1409 1409 1409 1409 1409 1409 1409 1409 1409 1409 1409 1409 1409 1409 1409 1409 1409 1409 1409 1409 1409 1409 1409 1409 1409 1409 1409 1409 1409 1409 1409 1409 1409 1409 1409 1409 1409 1409 1409 1409 1409 1409 1409 1409 1409 1409 1409 1409 1409 1409 1409 1409 1409 1409 1409 1409 1409 1409 1409 1409 1409 1409 1409 1409 1409 1409 1409 1409 1409 1409 1409 1409 1409 1409 1409 1409 1409 1409 1409 1409 1409 1409 1409 1409 1409 1409 1409 1409 1409 1409 1409 1409 1409 1409 1409 1409 1409 1409 1409 1409 1409 1409 1409 1409 1409 1409 1409 1409 1409 1409 1409 1409 1409 1409 1409 1409 1409 1409 1409 1409 1409 1409 1409 1409 1409 1409 1409 1409 1409 1409 1409 1409 1409 1409 1409 1409 1409 1409 1409 1409 1409 1409 1409 1409 1409 1409 1409 1409 1409 1409 1409 1409 1409 1409 1409 1409 1409 1409 1409 1409 1409 1409 1409 1409 1409 1409 1409 1409 1409 1409 1409 1409 1409 1409 1409 1409 1409 1409 1409 1409 1409 1409 1409 1409 1409 1409 1409 1409 1409 1409 1409 1409 1409 1409 1409 1409 1409 1409 1409 1409 1409 1409 1409 1409 1409 1409 1409 1409 1409 1409 1409 1409 1409 1409 1409 1409 1409 1409 1409 1409 1409 1409 1409 1409 1409 1409 1409 1409 1409 1409 1409 1409 1409 1409 1409 1409 1409 1409 1409 1409 1409 1409 1409 1409 1409 1409 1409 1409 1409 1409 1409 1409 1409 1409 1409 1409 1409 1409 1409 1409 1409 1409 1409 1409 1409 1409 1409 1409 1409 1409 1409 1409 1409 1409 1409 1409 1409 1409 1409 1409 1409 1409 1409 1409 1409 1409 1409 1409 1409 1409 1409 1409 1409 1409 1409 1409 1409 1409 1409 1409 1409 1409 1409 1409 1409 1409 1409 1409 1409 1409 1409 1409 1409 1409 1409 1409 1409 1409 1409 1409 1409 1409 1409 1409 1409 1409 1409 1409 1409 1409 1409 1409 1409 1409 1409 1409 1409 1409 1409 1409 1409 1409 1409 1409 1409 1409 1409 1409 1409 1409 1409 1409 1409 1409 1409 1409 1409 1409 1409 1409 1409 1409 1409 1409 1409 1409 1409 1409 1409 1409 1409 1409 1409 1409 1409 1409 1409 1409 1409 1409 1409 1409 1409 1409 1409 1409 1409 1409 1409 1409 1409 1409 1409 1409 1409 1409 1409 1409 1409 1409 1409 1409 1409 1409 1409 1409 1409 1409 1409 1409 1409 1409 1409 1409 1409 1409 1409 1409 1409 1409 1409 1409 1409 1409 1409 1409 1409 1409 1409 1409 1409 1409 1409 1409 1409 1409 1409 1409 1409 1409 1409 1409 1409 1409 1409 1409 1409 1409 1409 1409 1409 1409 1409 1409 1409 1409 1409 1409 1409 1409 1409 1409 1409 1409 1409 1409 1409 1409 1409 1409 1409 1409 1409 1409 1409 1409 1409 1409 1409 1409 1409 1409 1409 1409 1409 1409 1409 1409 1409 1409 1409 1409 1409 1409 1409 1409 1409 1409 1409 1409 1409 1409 1409 1409 1409 1409 1409 1409 1409 1409 1409 1409 1409 1409 1409 1409 1409 1409 1409 1409 1409 1409 1409 1409 1409 1409 1409 1409 1409 1409 1409 1409 1409 1409 1409 1409 1409 1409 1409 1409 1409 1409 1409 1409 1409 1409 1409 1409 1409 1409 1409 1409 1409 1409 1409 1409 1409 1409 1409 1409 1409 1409 1409 1409 1409 1409 1409 1409 1409 1409 1409 1409 1409 1409 1409 1409 1409 1409 1409 1409 1409 1409 1409 1409 1409 1409 1409 1409 1409 1409 1409 1409 1409 1409 1409 1409 1409 1409 1409 1409 1409 1409 1409 1409 1409 1409 1409 1409 1409 1409 1409 1409 1409 1409 1409 1409 1409 1409 1409 1409 1409 1409 1409 1409 1409 1409 1409 1409 1409 1409 1409 1409 1409 1409 1409 1409 1409 1409 1409 1409 1409 1409 1409 1409 1409 1409 1409 1409 1409 1409 1409 1409 1409 1409 1409 1409 1409 1409 1409 1409 1409 1409 1409 1409 1409 1409 1409 1409 1409 1409 1409 1409 1409 1409 1409 1409 1409 1409 1409 1409 1409 1409 1409 1409 1409 1409 1409 1409 1409 1409 1409 1409 1409 1409 1409 1409 1409 1409 1409 1409 1409 1409 1409 1409 1409 1409 1409 1409 1409 1409 1409 1409 1409 1409 1409 1409 1409 1409 1409 1409 1409 1409 1409 1409 1409 1409 1409 1409 1409 1409 1409 1409 1409 1409 1409 1409 1409 1409 1409 1409 1409 1409 1409 1409 1409 1409 1409 1409 1409 1409 1409 1409 1409 1409 1409 1409 1409 1409 1409 1409 1409 1409 1409 1409 1409 1409 1409 1409 1409 1409 1409 1409 1409 1409 1409 1409 1409 1409 1409 1409 1409 1409 1409 1409 1409 1409 1409 1409 1409 1409 1409 1409 1409 1409 1409 1409 1409 1409 1409 1409 1409 1409 1409 1409 1409 1409 1409 1409 1409 1409 1409 1409 1409 1409 1409 1409 1409 1409 1409 1409 1409 1409 1409 1409 1409 1409 1409 1409 1409 1409 1409 1409 1409 1409 1409 1409 1409 1409 1409 1409 1409 1409 1409 1409 1409 1409 1409 1409 1409 1409 1409 1409 1409 1409 1409 1409 1409 1409 1409 1409 1409 1409 1409 1409 1409 1409 1409 1409 1409 1409 1409 1409 1409 1409 1409 1409 1409 1409 1409 1409 1409 1409 1409 1409 1409 1409 1409 1409 1409 1409 1409 1409 1409 1409 1409 1409 1409 1409 1409 1409 1409 1409 1409 1409 1409 1409 1409 1409 1409 1409 1409 1409 1409 1409 1409 1409 1409 1409 1409 1409 1409 1409 1409 1409 1409 1409 1409 1409 1409 1409 1409 1409 1409 1409 1409 1409 1409 1409 1409 1409 1409 1409 1409 1409 1409 1409 1409 1409 1409 1409 1409 1409 1409 1409 1409 1409 1409 1409 1409 1409 1409 1409 1409 1409 1409 1409 1409 1409 1409 1409 1409 1409 1409 1409 1409 1409 1409 1409 1409 1409 1409 1409 1409 1409 1409 1409 1409 1409 1409 1409 1409 1409 1409 1409 1409 1409 1409 1409 1409 1409 1409 1409 1409 1409 1409 1409 1409 1409 1409 1409 1409 1409 1409 1409 1409 1409 1409 1409 1409 1409 1409 1409 1409 1409 1409 1409 1409 1409 1409 1409 1409 1409 1409 1409 1409 1409 1409 1409 1409 1409 1409 1409 1409 1409 1409 1409 1409 1409 1409 1409 1409 1409 1409 1409 1409 1409 1409 1409 1409 1409 1409 1409 1409 1409 1409 1409 1409 1409 1409 1409 1409 1409 1409 1409 1409 1409 1409 1409 1409 1409 1409 1409 1409 1409 1409 1409 1409 1409 1409 1409 1409 1409 1409 1409 1409 1409 1409 1409 1409 1409 1409 1409 1409 1409 1409 1409 1409 1409 1409 1409 1409 1409 1409 1409 1409 1409 1409 1409 1409 1409 1409 1409 1409 1409 1409 1409 1409 1409 1409 1409 1409 1409 1409 1409 1409 1409 1409 1409 1409 1409 1409 1409 1409 1409 1409 1409 1409 1409 1409 1409 1409 1409 1409 1409 1409 1409 1409 1409 1409 1409 1409 1409 1409 1409 1409 1409 1409 1409 1409 1409 1409 1409 1409 1409 1409 1409 1409 1409 1409 1409 1409 1409 1409 1409 1409 1409 1409 1409 1409 1409 1409 1409 1409 1409 1409 1409 1409 1409 1409 1409 1409 1409 1409 1409 1409 1409 1409 1409 1409 1409 1409 1409 1409 1409 1409 1409 1409 1409 1409 1409 1409 1409 1409 1409 1409 1409 1409 1409 1409 1409 1409 1409 1409 1409 1409 1409 1409 1409 1409 1409 1409 1409 1409 1409 1409 1409 1409 1409 1409 1409 1409 1409 1409 1409 1409 1409 1409 1409 1409 1409 1409 1409 1409 1409 1409 1409 1409 1409 1409 1409 1409 1409 1409 1409 1409 1409 1409 1409 1409 1409 1409 1409 1409 1409 1409 1409 1409 1409 1409 1409 1409 1409 1409 1409 1409 1409 1409 1409 1409 1409 1409 1409 1409 1409 1409 1409 1409 1409 1409 1409 1409 1409 1409 1409 1409 1409 1409 1409 1409 1409 1409 1409 1409 1409 1409 1409 1409 1409 1409 1409 1409 1409 1409 1409 1409 1409 1409 1409 1409 1409 1409 1409 1409 1409 1409 1409 1409 1409 1409 1409 1409 1409 1409 1409 1409 1409 1409 1409 1409 1409 1409 1409 1409 1409 1409 1409 1409 1409 1409 1409 1409 1409 1409 1409 1409 1409 1409 1409 1409 1409 1409 1409 1409 1409 1409 1409 1409 1409 1409 1409 1409 1409 1409 1409 1409 1409 1409 1409 1409 1409 1409 1409 1409 1409 1409 1409 1409 1409 1409 1409 1409 1409 1409 1409 1409 1409 1409 1409 1409 1409 1409 1409 1409 1409 1409 1409 1409 1409 1409 1409 1409 1409 1409 1409 1409 1409 1409 1409 1409 1409 1409 1409 1409 1409 1409 1409 1409 1409 1409 1409 1409 1409 1409 1409 1409 1409 1409 1409 1409 1409 1409 1409 1409 1409 1409 1409 1409 1409 1409 1409 1409 1409 1409 1409 1409 1409 1409 1409 1409 1409 1409 1409 1409 1409 1409 1409 1409 1409 1409 1409 1409 1409 1409 1409 1409 1409 1409 1409 1409 1409 1409 1409 1409 1409 1409 1409 1409 1409 1409 1409 1409 1409 1409 1409 1409 1409 1409 1409 1409 1409 1409 1409 1409 1409 1409 1409 1409 1409 1409 1409 1409 1409 1409 1409 1409 1409 1409 1409 1409 1409 1409 1409 1409 1409 1409 1409 1409 1409 1409 1409 1409 1409 1409 1409 1409 